p cnf 200 1110
-101 -23 0
-101 -92 0
-101 -1 0
-101 -59 0
-101 -73 0
-101 98 0
-101 -80 0
-101 30 0
-101 75 0
-101 78 0
101 23 92 1 59 73 -98 80 -30 -75 -78 0
-102 -31 0
-102 6 0
-102 -38 0
-102 83 0
-102 79 0
-102 -8 0
-102 60 0
-102 9 0
-102 71 0
-102 63 0
102 31 -6 38 -83 -79 8 -60 -9 -71 -63 0
-103 -10 0
-103 -67 0
-103 76 0
-103 -57 0
-103 34 0
-103 87 0
-103 95 0
-103 58 0
-103 -96 0
-103 65 0
103 10 67 -76 57 -34 -87 -95 -58 96 -65 0
-104 75 0
-104 -9 0
-104 86 0
-104 34 0
-104 -76 0
-104 -16 0
-104 53 0
-104 72 0
-104 -100 0
-104 -42 0
104 -75 9 -86 -34 76 16 -53 -72 100 42 0
-105 -79 0
-105 52 0
-105 -71 0
-105 -94 0
-105 97 0
-105 -2 0
-105 -96 0
-105 -50 0
-105 88 0
-105 92 0
105 79 -52 71 94 -97 2 96 50 -88 -92 0
-106 -28 0
-106 -82 0
-106 -93 0
-106 89 0
-106 12 0
-106 -8 0
-106 -15 0
-106 74 0
-106 -99 0
-106 -92 0
106 28 82 93 -89 -12 8 15 -74 99 92 0
-107 45 0
-107 -40 0
-107 95 0
-107 -99 0
-107 -90 0
-107 -50 0
-107 -23 0
-107 14 0
-107 51 0
-107 81 0
107 -45 40 -95 99 90 50 23 -14 -51 -81 0
-108 -8 0
-108 89 0
-108 57 0
-108 40 0
-108 -29 0
-108 10 0
-108 73 0
-108 83 0
-108 -33 0
-108 5 0
108 8 -89 -57 -40 29 -10 -73 -83 33 -5 0
-109 97 0
-109 -26 0
-109 -57 0
-109 -82 0
-109 -22 0
-109 -93 0
-109 -88 0
-109 40 0
-109 5 0
-109 -55 0
109 -97 26 57 82 22 93 88 -40 -5 55 0
-110 76 0
-110 39 0
-110 52 0
-110 37 0
-110 44 0
-110 23 0
-110 -68 0
-110 -9 0
-110 -62 0
-110 -28 0
110 -76 -39 -52 -37 -44 -23 68 9 62 28 0
101 102 103 104 105 106 107 108 109 110 0
-111 91 0
-111 92 0
-111 -19 0
-111 -15 0
-111 90 0
-111 69 0
-111 -53 0
-111 -83 0
-111 -13 0
-111 -2 0
111 -91 -92 19 15 -90 -69 53 83 13 2 0
-112 -9 0
-112 -5 0
-112 -85 0
-112 -19 0
-112 -38 0
-112 -21 0
-112 -2 0
-112 -68 0
-112 30 0
-112 -12 0
112 9 5 85 19 38 21 2 68 -30 12 0
-113 -23 0
-113 -98 0
-113 10 0
-113 -60 0
-113 -72 0
-113 22 0
-113 -51 0
-113 76 0
-113 -15 0
-113 -63 0
113 23 98 -10 60 72 -22 51 -76 15 63 0
-114 89 0
-114 26 0
-114 -42 0
-114 -51 0
-114 -11 0
-114 -22 0
-114 21 0
-114 -30 0
-114 -28 0
-114 -78 0
114 -89 -26 42 51 11 22 -21 30 28 78 0
-115 42 0
-115 -40 0
-115 -94 0
-115 22 0
-115 -18 0
-115 1 0
-115 78 0
-115 87 0
-115 -34 0
-115 -48 0
115 -42 40 94 -22 18 -1 -78 -87 34 48 0
-116 76 0
-116 -30 0
-116 -64 0
-116 42 0
-116 -93 0
-116 -47 0
-116 -74 0
-116 -98 0
-116 97 0
-116 67 0
116 -76 30 64 -42 93 47 74 98 -97 -67 0
-117 -95 0
-117 -44 0
-117 -93 0
-117 76 0
-117 7 0
-117 -20 0
-117 28 0
-117 -22 0
-117 -89 0
-117 -34 0
117 95 44 93 -76 -7 20 -28 22 89 34 0
-118 -51 0
-118 -30 0
-118 -64 0
-118 -21 0
-118 58 0
-118 -52 0
-118 100 0
-118 -1 0
-118 -82 0
-118 26 0
118 51 30 64 21 -58 52 -100 1 82 -26 0
-119 -60 0
-119 -27 0
-119 14 0
-119 -92 0
-119 -71 0
-119 49 0
-119 -24 0
-119 -95 0
-119 33 0
-119 -100 0
119 60 27 -14 92 71 -49 24 95 -33 100 0
-120 -15 0
-120 -60 0
-120 41 0
-120 100 0
-120 44 0
-120 43 0
-120 65 0
-120 -36 0
-120 55 0
-120 -70 0
120 15 60 -41 -100 -44 -43 -65 36 -55 70 0
111 112 113 114 115 116 117 118 119 120 0
-121 -57 0
-121 9 0
-121 -53 0
-121 2 0
-121 -63 0
-121 -89 0
-121 -22 0
-121 -88 0
-121 40 0
-121 -39 0
121 57 -9 53 -2 63 89 22 88 -40 39 0
-122 -65 0
-122 -32 0
-122 -28 0
-122 63 0
-122 44 0
-122 -72 0
-122 10 0
-122 -55 0
-122 33 0
-122 -64 0
122 65 32 28 -63 -44 72 -10 55 -33 64 0
-123 -35 0
-123 69 0
-123 -46 0
-123 34 0
-123 -3 0
-123 -92 0
-123 70 0
-123 30 0
-123 80 0
-123 -56 0
123 35 -69 46 -34 3 92 -70 -30 -80 56 0
-124 -18 0
-124 33 0
-124 20 0
-124 -4 0
-124 83 0
-124 -71 0
-124 72 0
-124 41 0
-124 5 0
-124 59 0
124 18 -33 -20 4 -83 71 -72 -41 -5 -59 0
-125 -5 0
-125 -50 0
-125 -43 0
-125 99 0
-125 92 0
-125 47 0
-125 -67 0
-125 70 0
-125 -27 0
-125 -12 0
125 5 50 43 -99 -92 -47 67 -70 27 12 0
-126 12 0
-126 -48 0
-126 -78 0
-126 93 0
-126 -16 0
-126 77 0
-126 69 0
-126 36 0
-126 97 0
-126 -35 0
126 -12 48 78 -93 16 -77 -69 -36 -97 35 0
-127 -2 0
-127 48 0
-127 -38 0
-127 -15 0
-127 -25 0
-127 -66 0
-127 1 0
-127 -73 0
-127 -90 0
-127 52 0
127 2 -48 38 15 25 66 -1 73 90 -52 0
-128 -55 0
-128 -62 0
-128 67 0
-128 -8 0
-128 44 0
-128 31 0
-128 24 0
-128 91 0
-128 46 0
-128 -73 0
128 55 62 -67 8 -44 -31 -24 -91 -46 73 0
-129 61 0
-129 -51 0
-129 -88 0
-129 79 0
-129 -72 0
-129 3 0
-129 -30 0
-129 89 0
-129 -60 0
-129 -64 0
129 -61 51 88 -79 72 -3 30 -89 60 64 0
-130 -49 0
-130 -5 0
-130 -90 0
-130 75 0
-130 69 0
-130 -6 0
-130 -100 0
-130 -63 0
-130 -30 0
-130 91 0
130 49 5 90 -75 -69 6 100 63 30 -91 0
121 122 123 124 125 126 127 128 129 130 0
-131 -56 0
-131 -47 0
-131 -28 0
-131 94 0
-131 86 0
-131 40 0
-131 49 0
-131 -93 0
-131 63 0
-131 -4 0
131 56 47 28 -94 -86 -40 -49 93 -63 4 0
-132 -92 0
-132 56 0
-132 70 0
-132 -18 0
-132 55 0
-132 -97 0
-132 20 0
-132 -87 0
-132 41 0
-132 68 0
132 92 -56 -70 18 -55 97 -20 87 -41 -68 0
-133 -25 0
-133 -98 0
-133 -96 0
-133 -36 0
-133 80 0
-133 -71 0
-133 -89 0
-133 90 0
-133 -81 0
-133 -53 0
133 25 98 96 36 -80 71 89 -90 81 53 0
-134 -41 0
-134 58 0
-134 -42 0
-134 61 0
-134 100 0
-134 91 0
-134 -45 0
-134 82 0
-134 -73 0
-134 76 0
134 41 -58 42 -61 -100 -91 45 -82 73 -76 0
-135 -37 0
-135 57 0
-135 -35 0
-135 -86 0
-135 -14 0
-135 -88 0
-135 -59 0
-135 -22 0
-135 -72 0
-135 -17 0
135 37 -57 35 86 14 88 59 22 72 17 0
-136 9 0
-136 98 0
-136 -61 0
-136 -37 0
-136 -2 0
-136 -73 0
-136 81 0
-136 91 0
-136 4 0
-136 -93 0
136 -9 -98 61 37 2 73 -81 -91 -4 93 0
-137 -90 0
-137 4 0
-137 -11 0
-137 -21 0
-137 -29 0
-137 -50 0
-137 -15 0
-137 73 0
-137 -41 0
-137 -71 0
137 90 -4 11 21 29 50 15 -73 41 71 0
-138 -45 0
-138 -67 0
-138 41 0
-138 100 0
-138 -97 0
-138 -73 0
-138 -32 0
-138 80 0
-138 19 0
-138 -44 0
138 45 67 -41 -100 97 73 32 -80 -19 44 0
-139 -50 0
-139 -77 0
-139 -24 0
-139 -44 0
-139 -42 0
-139 -87 0
-139 -31 0
-139 -10 0
-139 83 0
-139 -81 0
139 50 77 24 44 42 87 31 10 -83 81 0
-140 -10 0
-140 44 0
-140 -5 0
-140 -98 0
-140 20 0
-140 33 0
-140 42 0
-140 57 0
-140 6 0
-140 71 0
140 10 -44 5 98 -20 -33 -42 -57 -6 -71 0
131 132 133 134 135 136 137 138 139 140 0
-141 67 0
-141 -78 0
-141 56 0
-141 48 0
-141 -77 0
-141 -71 0
-141 58 0
-141 64 0
-141 11 0
-141 -21 0
141 -67 78 -56 -48 77 71 -58 -64 -11 21 0
-142 -46 0
-142 50 0
-142 33 0
-142 -73 0
-142 22 0
-142 -45 0
-142 -97 0
-142 47 0
-142 -53 0
-142 89 0
142 46 -50 -33 73 -22 45 97 -47 53 -89 0
-143 -67 0
-143 -31 0
-143 64 0
-143 -71 0
-143 98 0
-143 -56 0
-143 -63 0
-143 72 0
-143 91 0
-143 59 0
143 67 31 -64 71 -98 56 63 -72 -91 -59 0
-144 59 0
-144 -36 0
-144 39 0
-144 43 0
-144 -24 0
-144 -72 0
-144 66 0
-144 -64 0
-144 22 0
-144 5 0
144 -59 36 -39 -43 24 72 -66 64 -22 -5 0
-145 20 0
-145 -5 0
-145 34 0
-145 68 0
-145 -12 0
-145 -71 0
-145 47 0
-145 54 0
-145 69 0
-145 65 0
145 -20 5 -34 -68 12 71 -47 -54 -69 -65 0
-146 -10 0
-146 -16 0
-146 59 0
-146 32 0
-146 -84 0
-146 -34 0
-146 -60 0
-146 -82 0
-146 -61 0
-146 -88 0
146 10 16 -59 -32 84 34 60 82 61 88 0
-147 41 0
-147 -56 0
-147 -5 0
-147 -9 0
-147 -40 0
-147 -6 0
-147 48 0
-147 69 0
-147 -73 0
-147 43 0
147 -41 56 5 9 40 6 -48 -69 73 -43 0
-148 -59 0
-148 -20 0
-148 15 0
-148 -68 0
-148 9 0
-148 67 0
-148 1 0
-148 -71 0
-148 -64 0
-148 -100 0
148 59 20 -15 68 -9 -67 -1 71 64 100 0
-149 19 0
-149 -66 0
-149 -44 0
-149 -11 0
-149 48 0
-149 -55 0
-149 -61 0
-149 -100 0
-149 8 0
-149 6 0
149 -19 66 44 11 -48 55 61 100 -8 -6 0
-150 -46 0
-150 17 0
-150 -49 0
-150 -88 0
-150 -34 0
-150 87 0
-150 -71 0
-150 100 0
-150 -31 0
-150 -82 0
150 46 -17 49 88 34 -87 71 -100 31 82 0
141 142 143 144 145 146 147 148 149 150 0
-151 64 0
-151 77 0
-151 48 0
-151 -10 0
-151 -67 0
-151 66 0
-151 88 0
-151 -89 0
-151 -12 0
-151 74 0
151 -64 -77 -48 10 67 -66 -88 89 12 -74 0
-152 32 0
-152 67 0
-152 -10 0
-152 11 0
-152 -81 0
-152 44 0
-152 -35 0
-152 74 0
-152 -84 0
-152 -41 0
152 -32 -67 10 -11 81 -44 35 -74 84 41 0
-153 63 0
-153 7 0
-153 -51 0
-153 38 0
-153 -60 0
-153 -69 0
-153 24 0
-153 -73 0
-153 87 0
-153 -84 0
153 -63 -7 51 -38 60 69 -24 73 -87 84 0
-154 67 0
-154 -83 0
-154 93 0
-154 -73 0
-154 41 0
-154 91 0
-154 40 0
-154 62 0
-154 -85 0
-154 80 0
154 -67 83 -93 73 -41 -91 -40 -62 85 -80 0
-155 93 0
-155 72 0
-155 52 0
-155 34 0
-155 41 0
-155 58 0
-155 70 0
-155 40 0
-155 6 0
-155 21 0
155 -93 -72 -52 -34 -41 -58 -70 -40 -6 -21 0
-156 -16 0
-156 2 0
-156 25 0
-156 -96 0
-156 65 0
-156 -75 0
-156 -55 0
-156 59 0
-156 -48 0
-156 60 0
156 16 -2 -25 96 -65 75 55 -59 48 -60 0
-157 50 0
-157 -37 0
-157 -30 0
-157 -49 0
-157 67 0
-157 80 0
-157 9 0
-157 29 0
-157 -99 0
-157 21 0
157 -50 37 30 49 -67 -80 -9 -29 99 -21 0
-158 89 0
-158 15 0
-158 -11 0
-158 10 0
-158 -91 0
-158 -45 0
-158 18 0
-158 93 0
-158 58 0
-158 46 0
158 -89 -15 11 -10 91 45 -18 -93 -58 -46 0
-159 -23 0
-159 51 0
-159 -12 0
-159 -44 0
-159 17 0
-159 -64 0
-159 84 0
-159 36 0
-159 49 0
-159 -92 0
159 23 -51 12 44 -17 64 -84 -36 -49 92 0
-160 51 0
-160 -91 0
-160 -20 0
-160 -17 0
-160 80 0
-160 -77 0
-160 39 0
-160 -57 0
-160 -69 0
-160 -52 0
160 -51 91 20 17 -80 77 -39 57 69 52 0
151 152 153 154 155 156 157 158 159 160 0
-161 91 0
-161 -92 0
-161 -66 0
-161 -28 0
-161 95 0
-161 62 0
-161 -40 0
-161 -5 0
-161 51 0
-161 -20 0
161 -91 92 66 28 -95 -62 40 5 -51 20 0
-162 -39 0
-162 29 0
-162 31 0
-162 -64 0
-162 -15 0
-162 -36 0
-162 76 0
-162 -4 0
-162 -12 0
-162 24 0
162 39 -29 -31 64 15 36 -76 4 12 -24 0
-163 96 0
-163 -49 0
-163 40 0
-163 -35 0
-163 1 0
-163 22 0
-163 9 0
-163 -17 0
-163 87 0
-163 -56 0
163 -96 49 -40 35 -1 -22 -9 17 -87 56 0
-164 -9 0
-164 96 0
-164 92 0
-164 -65 0
-164 11 0
-164 -87 0
-164 16 0
-164 -90 0
-164 69 0
-164 61 0
164 9 -96 -92 65 -11 87 -16 90 -69 -61 0
-165 91 0
-165 87 0
-165 -81 0
-165 -45 0
-165 -32 0
-165 23 0
-165 -42 0
-165 25 0
-165 -86 0
-165 -38 0
165 -91 -87 81 45 32 -23 42 -25 86 38 0
-166 -47 0
-166 -22 0
-166 -12 0
-166 -89 0
-166 72 0
-166 83 0
-166 30 0
-166 38 0
-166 29 0
-166 51 0
166 47 22 12 89 -72 -83 -30 -38 -29 -51 0
-167 -43 0
-167 -2 0
-167 -8 0
-167 41 0
-167 -42 0
-167 84 0
-167 -71 0
-167 -59 0
-167 87 0
-167 61 0
167 43 2 8 -41 42 -84 71 59 -87 -61 0
-168 89 0
-168 30 0
-168 -85 0
-168 -31 0
-168 52 0
-168 41 0
-168 -35 0
-168 72 0
-168 -69 0
-168 -44 0
168 -89 -30 85 31 -52 -41 35 -72 69 44 0
-169 -13 0
-169 59 0
-169 37 0
-169 36 0
-169 42 0
-169 55 0
-169 84 0
-169 97 0
-169 -33 0
-169 -24 0
169 13 -59 -37 -36 -42 -55 -84 -97 33 24 0
-170 -25 0
-170 13 0
-170 85 0
-170 -3 0
-170 -26 0
-170 96 0
-170 -78 0
-170 42 0
-170 -55 0
-170 -36 0
170 25 -13 -85 3 26 -96 78 -42 55 36 0
161 162 163 164 165 166 167 168 169 170 0
-171 -95 0
-171 75 0
-171 55 0
-171 -100 0
-171 -97 0
-171 -66 0
-171 -72 0
-171 38 0
-171 -86 0
-171 15 0
171 95 -75 -55 100 97 66 72 -38 86 -15 0
-172 -16 0
-172 -89 0
-172 -29 0
-172 -68 0
-172 54 0
-172 33 0
-172 75 0
-172 -39 0
-172 59 0
-172 -26 0
172 16 89 29 68 -54 -33 -75 39 -59 26 0
-173 69 0
-173 86 0
-173 34 0
-173 -39 0
-173 96 0
-173 -58 0
-173 54 0
-173 -91 0
-173 9 0
-173 5 0
173 -69 -86 -34 39 -96 58 -54 91 -9 -5 0
-174 32 0
-174 16 0
-174 79 0
-174 -26 0
-174 -83 0
-174 -2 0
-174 -22 0
-174 -13 0
-174 -77 0
-174 86 0
174 -32 -16 -79 26 83 2 22 13 77 -86 0
-175 -48 0
-175 54 0
-175 -61 0
-175 -17 0
-175 -81 0
-175 76 0
-175 60 0
-175 -68 0
-175 52 0
-175 -55 0
175 48 -54 61 17 81 -76 -60 68 -52 55 0
-176 -41 0
-176 -11 0
-176 -69 0
-176 72 0
-176 -75 0
-176 24 0
-176 -18 0
-176 94 0
-176 -16 0
-176 -22 0
176 41 11 69 -72 75 -24 18 -94 16 22 0
-177 12 0
-177 -61 0
-177 -41 0
-177 40 0
-177 -69 0
-177 3 0
-177 75 0
-177 -25 0
-177 17 0
-177 51 0
177 -12 61 41 -40 69 -3 -75 25 -17 -51 0
-178 21 0
-178 99 0
-178 -78 0
-178 -35 0
-178 -8 0
-178 22 0
-178 98 0
-178 -15 0
-178 -37 0
-178 100 0
178 -21 -99 78 35 8 -22 -98 15 37 -100 0
-179 2 0
-179 -34 0
-179 -47 0
-179 -44 0
-179 -50 0
-179 -66 0
-179 27 0
-179 41 0
-179 26 0
-179 68 0
179 -2 34 47 44 50 66 -27 -41 -26 -68 0
-180 -66 0
-180 33 0
-180 -60 0
-180 95 0
-180 47 0
-180 84 0
-180 -12 0
-180 -40 0
-180 -78 0
-180 73 0
180 66 -33 60 -95 -47 -84 12 40 78 -73 0
171 172 173 174 175 176 177 178 179 180 0
-181 -34 0
-181 33 0
-181 20 0
-181 -94 0
-181 -62 0
-181 26 0
-181 84 0
-181 -65 0
-181 -44 0
-181 39 0
181 34 -33 -20 94 62 -26 -84 65 44 -39 0
-182 -49 0
-182 86 0
-182 46 0
-182 -56 0
-182 59 0
-182 17 0
-182 89 0
-182 69 0
-182 -16 0
-182 57 0
182 49 -86 -46 56 -59 -17 -89 -69 16 -57 0
-183 -59 0
-183 25 0
-183 86 0
-183 49 0
-183 23 0
-183 -93 0
-183 -32 0
-183 -39 0
-183 -70 0
-183 -91 0
183 59 -25 -86 -49 -23 93 32 39 70 91 0
-184 24 0
-184 -91 0
-184 78 0
-184 77 0
-184 -63 0
-184 -19 0
-184 54 0
-184 65 0
-184 30 0
-184 -69 0
184 -24 91 -78 -77 63 19 -54 -65 -30 69 0
-185 86 0
-185 80 0
-185 77 0
-185 29 0
-185 -5 0
-185 -20 0
-185 91 0
-185 42 0
-185 -71 0
-185 -16 0
185 -86 -80 -77 -29 5 20 -91 -42 71 16 0
-186 27 0
-186 66 0
-186 55 0
-186 -65 0
-186 71 0
-186 -72 0
-186 -32 0
-186 36 0
-186 64 0
-186 -7 0
186 -27 -66 -55 65 -71 72 32 -36 -64 7 0
-187 -97 0
-187 -37 0
-187 98 0
-187 14 0
-187 -95 0
-187 -35 0
-187 -82 0
-187 -63 0
-187 3 0
-187 -22 0
187 97 37 -98 -14 95 35 82 63 -3 22 0
-188 -20 0
-188 39 0
-188 78 0
-188 26 0
-188 -29 0
-188 97 0
-188 -70 0
-188 -19 0
-188 -95 0
-188 -52 0
188 20 -39 -78 -26 29 -97 70 19 95 52 0
-189 -43 0
-189 14 0
-189 -38 0
-189 -19 0
-189 -25 0
-189 -36 0
-189 66 0
-189 -4 0
-189 -47 0
-189 -98 0
189 43 -14 38 19 25 36 -66 4 47 98 0
-190 -99 0
-190 -80 0
-190 -7 0
-190 85 0
-190 -40 0
-190 2 0
-190 33 0
-190 -16 0
-190 29 0
-190 77 0
190 99 80 7 -85 40 -2 -33 16 -29 -77 0
181 182 183 184 185 186 187 188 189 190 0
-191 -62 0
-191 -33 0
-191 91 0
-191 -1 0
-191 4 0
-191 -69 0
-191 -29 0
-191 86 0
-191 56 0
-191 -50 0
191 62 33 -91 1 -4 69 29 -86 -56 50 0
-192 -38 0
-192 39 0
-192 -45 0
-192 80 0
-192 14 0
-192 26 0
-192 -72 0
-192 74 0
-192 -78 0
-192 90 0
192 38 -39 45 -80 -14 -26 72 -74 78 -90 0
-193 -53 0
-193 -45 0
-193 -76 0
-193 21 0
-193 55 0
-193 12 0
-193 5 0
-193 95 0
-193 2 0
-193 -24 0
193 53 45 76 -21 -55 -12 -5 -95 -2 24 0
-194 80 0
-194 78 0
-194 88 0
-194 19 0
-194 97 0
-194 -82 0
-194 98 0
-194 -58 0
-194 -90 0
-194 -96 0
194 -80 -78 -88 -19 -97 82 -98 58 90 96 0
-195 70 0
-195 -57 0
-195 -82 0
-195 48 0
-195 -52 0
-195 28 0
-195 -42 0
-195 12 0
-195 -10 0
-195 -61 0
195 -70 57 82 -48 52 -28 42 -12 10 61 0
-196 -89 0
-196 37 0
-196 -46 0
-196 1 0
-196 58 0
-196 -87 0
-196 57 0
-196 -73 0
-196 6 0
-196 -14 0
196 89 -37 46 -1 -58 87 -57 73 -6 14 0
-197 -31 0
-197 7 0
-197 -60 0
-197 57 0
-197 39 0
-197 63 0
-197 -22 0
-197 -11 0
-197 -26 0
-197 -38 0
197 31 -7 60 -57 -39 -63 22 11 26 38 0
-198 -79 0
-198 -58 0
-198 4 0
-198 15 0
-198 -33 0
-198 49 0
-198 92 0
-198 18 0
-198 -66 0
-198 20 0
198 79 58 -4 -15 33 -49 -92 -18 66 -20 0
-199 79 0
-199 30 0
-199 -32 0
-199 28 0
-199 25 0
-199 69 0
-199 50 0
-199 85 0
-199 92 0
-199 -48 0
199 -79 -30 32 -28 -25 -69 -50 -85 -92 48 0
-200 43 0
-200 86 0
-200 -2 0
-200 97 0
-200 16 0
-200 -100 0
-200 -84 0
-200 66 0
-200 39 0
-200 85 0
200 -43 -86 2 -97 -16 100 84 -66 -39 -85 0
191 192 193 194 195 196 197 198 199 200 0
